pure_adt/tip2015_weird_nat_op_assoc.smt2
(set-logic HORN)
(declare-datatypes ((Nat_498 0)) (((zero_134 ) (succ_130 (p_364 Nat_498)))))
(declare-fun diseqNat_498 (Nat_498 Nat_498) Bool)
(declare-fun p_365 (Nat_498 Nat_498) Bool)
(declare-fun iszero_130 (Nat_498) Bool)
(declare-fun issucc_130 (Nat_498) Bool)
(assert (forall ((x_52382 Nat_498))
	(p_365 x_52382 (succ_130 x_52382))))
(assert (iszero_130 zero_134))
(assert (forall ((x_52384 Nat_498))
	(issucc_130 (succ_130 x_52384))))
(assert (forall ((x_52385 Nat_498))
	(diseqNat_498 zero_134 (succ_130 x_52385))))
(assert (forall ((x_52386 Nat_498))
	(diseqNat_498 (succ_130 x_52386) zero_134)))
(assert (forall ((x_52387 Nat_498) (x_52388 Nat_498))
	(=> (diseqNat_498 x_52387 x_52388)
	    (diseqNat_498 (succ_130 x_52387) (succ_130 x_52388)))))
(declare-fun op_3 (Nat_498 Nat_498 Nat_498 Nat_498 Nat_498) Bool)
(assert (forall ((x_52371 Nat_498) (x_52369 Nat_498) (x_52367 Nat_498) (y_2005 Nat_498) (x_52368 Nat_498))
	(=> (op_3 x_52371 x_52367 y_2005 x_52369 (succ_130 x_52368))
	    (op_3 x_52371 x_52367 y_2005 (succ_130 x_52369) x_52368))))
(assert (forall ((x_52373 Nat_498) (x_52370 Nat_498) (y_2005 Nat_498) (x_52368 Nat_498))
	(=> (op_3 x_52373 x_52370 y_2005 y_2005 x_52368)
	    (op_3 x_52373 (succ_130 x_52370) y_2005 zero_134 x_52368))))
(assert (forall ((y_2005 Nat_498) (x_52368 Nat_498))
	(op_3 x_52368 zero_134 y_2005 zero_134 x_52368)))
(assert (forall ((x_52376 Nat_498) (x_52377 Nat_498) (x_52378 Nat_498) (x_52379 Nat_498) (a_52 Nat_498) (b_33 Nat_498) (c_20 Nat_498) (d_5 Nat_498) (e_0 Nat_498))
	(=>	(and true
			(diseqNat_498 x_52377 x_52379)
			(op_3 x_52376 a_52 b_33 zero_134 zero_134)
			(op_3 x_52377 x_52376 c_20 d_5 e_0)
			(op_3 x_52378 b_33 c_20 zero_134 zero_134)
			(op_3 x_52379 a_52 x_52378 d_5 e_0))
		false)))
(check-sat)
